100 4950
1 2 1
1 3 5
1 4 1
1 5 2
1 6 2
1 7 2
1 8 1
1 9 4
1 10 5
1 11 5
1 12 3
1 13 1
1 14 5
1 15 2
1 16 5
1 17 1
1 18 1
1 19 4
1 20 2
1 21 3
1 22 4
1 23 3
1 24 1
1 25 5
1 26 1
1 27 1
1 28 5
1 29 2
1 30 3
1 31 1
1 32 3
1 33 4
1 34 1
1 35 1
1 36 4
1 37 5
1 38 1
1 39 4
1 40 4
1 41 4
1 42 2
1 43 1
1 44 5
1 45 4
1 46 1
1 47 1
1 48 3
1 49 4
1 50 3
1 51 5
1 52 3
1 53 4
1 54 1
1 55 5
1 56 2
1 57 4
1 58 2
1 59 2
1 60 2
1 61 3
1 62 1
1 63 1
1 64 3
1 65 5
1 66 1
1 67 1
1 68 5
1 69 2
1 70 2
1 71 2
1 72 3
1 73 1
1 74 3
1 75 4
1 76 2
1 77 2
1 78 4
1 79 4
1 80 4
1 81 1
1 82 4
1 83 4
1 84 1
1 85 5
1 86 4
1 87 1
1 88 5
1 89 1
1 90 5
1 91 5
1 92 1
1 93 3
1 94 2
1 95 4
1 96 1
1 97 2
1 98 3
1 99 2
1 100 2
2 3 4
2 4 1
2 5 2
2 6 4
2 7 3
2 8 4
2 9 4
2 10 2
2 11 2
2 12 4
2 13 4
2 14 4
2 15 4
2 16 2
2 17 4
2 18 5
2 19 3
2 20 5
2 21 4
2 22 1
2 23 3
2 24 3
2 25 3
2 26 1
2 27 2
2 28 2
2 29 3
2 30 2
2 31 2
2 32 5
2 33 1
2 34 1
2 35 3
2 36 3
2 37 3
2 38 2
2 39 3
2 40 3
2 41 2
2 42 3
2 43 1
2 44 4
2 45 5
2 46 2
2 47 3
2 48 1
2 49 3
2 50 2
2 51 4
2 52 1
2 53 1
2 54 1
2 55 3
2 56 2
2 57 5
2 58 4
2 59 5
2 60 1
2 61 5
2 62 2
2 63 2
2 64 4
2 65 5
2 66 1
2 67 2
2 68 2
2 69 1
2 70 5
2 71 5
2 72 4
2 73 5
2 74 2
2 75 4
2 76 3
2 77 3
2 78 1
2 79 4
2 80 1
2 81 5
2 82 1
2 83 1
2 84 4
2 85 3
2 86 1
2 87 1
2 88 2
2 89 5
2 90 3
2 91 4
2 92 1
2 93 2
2 94 5
2 95 3
2 96 3
2 97 1
2 98 4
2 99 4
2 100 4
3 4 1
3 5 1
3 6 1
3 7 5
3 8 4
3 9 5
3 10 3
3 11 4
3 12 4
3 13 2
3 14 4
3 15 5
3 16 3
3 17 2
3 18 2
3 19 4
3 20 3
3 21 2
3 22 2
3 23 4
3 24 3
3 25 5
3 26 1
3 27 2
3 28 4
3 29 3
3 30 5
3 31 3
3 32 1
3 33 3
3 34 5
3 35 5
3 36 3
3 37 4
3 38 5
3 39 1
3 40 4
3 41 4
3 42 2
3 43 2
3 44 3
3 45 2
3 46 3
3 47 5
3 48 4
3 49 3
3 50 1
3 51 3
3 52 2
3 53 4
3 54 5
3 55 3
3 56 4
3 57 4
3 58 2
3 59 4
3 60 4
3 61 4
3 62 4
3 63 4
3 64 5
3 65 5
3 66 1
3 67 3
3 68 1
3 69 5
3 70 3
3 71 3
3 72 4
3 73 4
3 74 1
3 75 2
3 76 4
3 77 5
3 78 3
3 79 4
3 80 1
3 81 4
3 82 4
3 83 5
3 84 3
3 85 1
3 86 4
3 87 2
3 88 5
3 89 1
3 90 5
3 91 3
3 92 5
3 93 4
3 94 4
3 95 4
3 96 4
3 97 1
3 98 5
3 99 5
3 100 2
4 5 3
4 6 2
4 7 2
4 8 1
4 9 2
4 10 4
4 11 4
4 12 1
4 13 5
4 14 5
4 15 2
4 16 2
4 17 3
4 18 1
4 19 2
4 20 5
4 21 5
4 22 2
4 23 5
4 24 3
4 25 4
4 26 3
4 27 2
4 28 2
4 29 3
4 30 3
4 31 4
4 32 5
4 33 5
4 34 4
4 35 3
4 36 1
4 37 2
4 38 1
4 39 4
4 40 2
4 41 3
4 42 4
4 43 5
4 44 5
4 45 3
4 46 2
4 47 4
4 48 3
4 49 2
4 50 1
4 51 4
4 52 2
4 53 4
4 54 3
4 55 2
4 56 3
4 57 1
4 58 3
4 59 2
4 60 1
4 61 5
4 62 3
4 63 3
4 64 2
4 65 2
4 66 5
4 67 4
4 68 3
4 69 4
4 70 4
4 71 5
4 72 1
4 73 5
4 74 3
4 75 5
4 76 1
4 77 2
4 78 2
4 79 4
4 80 5
4 81 2
4 82 3
4 83 3
4 84 5
4 85 5
4 86 5
4 87 5
4 88 5
4 89 5
4 90 2
4 91 5
4 92 1
4 93 2
4 94 1
4 95 4
4 96 3
4 97 2
4 98 4
4 99 3
4 100 4
5 6 2
5 7 1
5 8 1
5 9 5
5 10 3
5 11 5
5 12 5
5 13 1
5 14 1
5 15 5
5 16 1
5 17 5
5 18 5
5 19 3
5 20 5
5 21 5
5 22 1
5 23 4
5 24 3
5 25 1
5 26 2
5 27 4
5 28 1
5 29 3
5 30 2
5 31 1
5 32 3
5 33 2
5 34 1
5 35 5
5 36 4
5 37 2
5 38 2
5 39 2
5 40 4
5 41 5
5 42 4
5 43 2
5 44 3
5 45 2
5 46 3
5 47 3
5 48 5
5 49 3
5 50 1
5 51 1
5 52 4
5 53 3
5 54 2
5 55 2
5 56 4
5 57 5
5 58 4
5 59 5
5 60 4
5 61 4
5 62 3
5 63 3
5 64 5
5 65 2
5 66 5
5 67 3
5 68 1
5 69 3
5 70 1
5 71 3
5 72 5
5 73 4
5 74 2
5 75 3
5 76 5
5 77 3
5 78 5
5 79 2
5 80 3
5 81 5
5 82 5
5 83 2
5 84 5
5 85 2
5 86 5
5 87 2
5 88 3
5 89 5
5 90 4
5 91 2
5 92 2
5 93 4
5 94 2
5 95 2
5 96 5
5 97 1
5 98 2
5 99 2
5 100 1
6 7 3
6 8 2
6 9 4
6 10 2
6 11 5
6 12 3
6 13 3
6 14 4
6 15 2
6 16 2
6 17 3
6 18 1
6 19 3
6 20 5
6 21 4
6 22 2
6 23 2
6 24 2
6 25 2
6 26 3
6 27 5
6 28 1
6 29 4
6 30 4
6 31 3
6 32 2
6 33 1
6 34 5
6 35 5
6 36 4
6 37 5
6 38 3
6 39 2
6 40 5
6 41 1
6 42 4
6 43 5
6 44 4
6 45 4
6 46 4
6 47 1
6 48 1
6 49 5
6 50 5
6 51 4
6 52 3
6 53 1
6 54 5
6 55 1
6 56 2
6 57 5
6 58 2
6 59 2
6 60 5
6 61 5
6 62 1
6 63 5
6 64 4
6 65 2
6 66 4
6 67 5
6 68 5
6 69 5
6 70 2
6 71 5
6 72 5
6 73 4
6 74 3
6 75 3
6 76 2
6 77 1
6 78 1
6 79 2
6 80 5
6 81 4
6 82 4
6 83 2
6 84 5
6 85 1
6 86 4
6 87 1
6 88 5
6 89 5
6 90 4
6 91 1
6 92 4
6 93 1
6 94 2
6 95 5
6 96 4
6 97 3
6 98 2
6 99 5
6 100 5
7 8 4
7 9 3
7 10 3
7 11 4
7 12 5
7 13 1
7 14 3
7 15 4
7 16 1
7 17 2
7 18 3
7 19 3
7 20 2
7 21 3
7 22 3
7 23 1
7 24 5
7 25 1
7 26 2
7 27 1
7 28 4
7 29 5
7 30 5
7 31 3
7 32 1
7 33 2
7 34 5
7 35 1
7 36 1
7 37 5
7 38 5
7 39 5
7 40 2
7 41 2
7 42 3
7 43 1
7 44 5
7 45 3
7 46 3
7 47 4
7 48 2
7 49 3
7 50 4
7 51 2
7 52 4
7 53 4
7 54 1
7 55 4
7 56 4
7 57 1
7 58 4
7 59 5
7 60 2
7 61 1
7 62 2
7 63 4
7 64 5
7 65 1
7 66 4
7 67 4
7 68 4
7 69 5
7 70 1
7 71 4
7 72 2
7 73 3
7 74 3
7 75 1
7 76 3
7 77 5
7 78 5
7 79 4
7 80 3
7 81 3
7 82 3
7 83 4
7 84 1
7 85 1
7 86 2
7 87 3
7 88 5
7 89 2
7 90 1
7 91 4
7 92 1
7 93 3
7 94 1
7 95 2
7 96 3
7 97 2
7 98 2
7 99 4
7 100 4
8 9 5
8 10 2
8 11 5
8 12 2
8 13 1
8 14 4
8 15 3
8 16 1
8 17 3
8 18 1
8 19 1
8 20 4
8 21 5
8 22 3
8 23 5
8 24 2
8 25 2
8 26 3
8 27 4
8 28 2
8 29 4
8 30 2
8 31 1
8 32 3
8 33 1
8 34 1
8 35 1
8 36 1
8 37 2
8 38 1
8 39 2
8 40 3
8 41 1
8 42 1
8 43 5
8 44 4
8 45 1
8 46 1
8 47 1
8 48 3
8 49 3
8 50 4
8 51 1
8 52 3
8 53 2
8 54 1
8 55 5
8 56 4
8 57 5
8 58 1
8 59 1
8 60 4
8 61 3
8 62 3
8 63 1
8 64 3
8 65 5
8 66 1
8 67 2
8 68 2
8 69 4
8 70 3
8 71 4
8 72 4
8 73 5
8 74 1
8 75 1
8 76 5
8 77 1
8 78 2
8 79 5
8 80 4
8 81 4
8 82 3
8 83 5
8 84 5
8 85 2
8 86 5
8 87 1
8 88 1
8 89 3
8 90 3
8 91 4
8 92 3
8 93 1
8 94 1
8 95 1
8 96 2
8 97 3
8 98 1
8 99 2
8 100 2
9 10 3
9 11 4
9 12 3
9 13 2
9 14 5
9 15 4
9 16 2
9 17 2
9 18 2
9 19 2
9 20 5
9 21 4
9 22 3
9 23 1
9 24 5
9 25 4
9 26 3
9 27 1
9 28 3
9 29 5
9 30 1
9 31 3
9 32 2
9 33 2
9 34 5
9 35 4
9 36 1
9 37 4
9 38 4
9 39 2
9 40 3
9 41 2
9 42 2
9 43 4
9 44 3
9 45 1
9 46 1
9 47 4
9 48 1
9 49 2
9 50 1
9 51 2
9 52 4
9 53 4
9 54 4
9 55 4
9 56 4
9 57 4
9 58 4
9 59 4
9 60 2
9 61 5
9 62 1
9 63 2
9 64 4
9 65 2
9 66 3
9 67 1
9 68 1
9 69 4
9 70 3
9 71 5
9 72 1
9 73 3
9 74 1
9 75 3
9 76 4
9 77 2
9 78 5
9 79 5
9 80 3
9 81 5
9 82 4
9 83 3
9 84 3
9 85 4
9 86 3
9 87 5
9 88 4
9 89 4
9 90 2
9 91 3
9 92 4
9 93 3
9 94 1
9 95 2
9 96 3
9 97 4
9 98 3
9 99 1
9 100 2
10 11 3
10 12 4
10 13 5
10 14 4
10 15 2
10 16 5
10 17 1
10 18 1
10 19 5
10 20 3
10 21 5
10 22 4
10 23 5
10 24 1
10 25 4
10 26 5
10 27 5
10 28 4
10 29 5
10 30 4
10 31 4
10 32 1
10 33 3
10 34 5
10 35 5
10 36 4
10 37 1
10 38 1
10 39 2
10 40 3
10 41 2
10 42 5
10 43 5
10 44 3
10 45 3
10 46 1
10 47 2
10 48 2
10 49 2
10 50 3
10 51 4
10 52 4
10 53 5
10 54 3
10 55 2
10 56 4
10 57 2
10 58 5
10 59 5
10 60 2
10 61 5
10 62 2
10 63 2
10 64 1
10 65 5
10 66 5
10 67 3
10 68 3
10 69 1
10 70 3
10 71 5
10 72 5
10 73 5
10 74 1
10 75 2
10 76 2
10 77 1
10 78 1
10 79 5
10 80 1
10 81 5
10 82 4
10 83 2
10 84 2
10 85 1
10 86 2
10 87 4
10 88 3
10 89 4
10 90 1
10 91 2
10 92 4
10 93 2
10 94 1
10 95 5
10 96 2
10 97 3
10 98 1
10 99 5
10 100 2
11 12 3
11 13 1
11 14 3
11 15 1
11 16 2
11 17 4
11 18 2
11 19 1
11 20 4
11 21 5
11 22 2
11 23 4
11 24 4
11 25 5
11 26 5
11 27 3
11 28 5
11 29 3
11 30 4
11 31 4
11 32 1
11 33 3
11 34 5
11 35 3
11 36 3
11 37 3
11 38 5
11 39 3
11 40 3
11 41 5
11 42 1
11 43 5
11 44 2
11 45 2
11 46 5
11 47 5
11 48 2
11 49 3
11 50 2
11 51 4
11 52 5
11 53 2
11 54 5
11 55 3
11 56 2
11 57 2
11 58 3
11 59 5
11 60 3
11 61 4
11 62 3
11 63 5
11 64 5
11 65 1
11 66 3
11 67 2
11 68 3
11 69 1
11 70 3
11 71 1
11 72 3
11 73 3
11 74 4
11 75 3
11 76 5
11 77 3
11 78 2
11 79 4
11 80 4
11 81 3
11 82 1
11 83 2
11 84 2
11 85 4
11 86 5
11 87 5
11 88 2
11 89 1
11 90 3
11 91 4
11 92 4
11 93 1
11 94 3
11 95 4
11 96 1
11 97 4
11 98 1
11 99 5
11 100 4
12 13 2
12 14 5
12 15 4
12 16 2
12 17 2
12 18 5
12 19 5
12 20 1
12 21 1
12 22 5
12 23 2
12 24 3
12 25 2
12 26 4
12 27 4
12 28 4
12 29 4
12 30 3
12 31 1
12 32 4
12 33 4
12 34 3
12 35 4
12 36 3
12 37 3
12 38 4
12 39 5
12 40 2
12 41 5
12 42 3
12 43 3
12 44 1
12 45 4
12 46 2
12 47 2
12 48 3
12 49 4
12 50 4
12 51 2
12 52 4
12 53 1
12 54 4
12 55 2
12 56 3
12 57 3
12 58 3
12 59 4
12 60 4
12 61 2
12 62 4
12 63 5
12 64 1
12 65 1
12 66 3
12 67 5
12 68 1
12 69 4
12 70 2
12 71 5
12 72 3
12 73 2
12 74 3
12 75 1
12 76 3
12 77 5
12 78 2
12 79 1
12 80 2
12 81 5
12 82 2
12 83 1
12 84 3
12 85 3
12 86 5
12 87 4
12 88 4
12 89 1
12 90 1
12 91 1
12 92 4
12 93 4
12 94 5
12 95 4
12 96 4
12 97 1
12 98 4
12 99 1
12 100 5
13 14 3
13 15 2
13 16 2
13 17 4
13 18 2
13 19 3
13 20 1
13 21 1
13 22 1
13 23 1
13 24 3
13 25 3
13 26 2
13 27 5
13 28 2
13 29 2
13 30 3
13 31 1
13 32 4
13 33 5
13 34 5
13 35 4
13 36 1
13 37 4
13 38 2
13 39 3
13 40 4
13 41 4
13 42 1
13 43 1
13 44 1
13 45 4
13 46 2
13 47 4
13 48 5
13 49 1
13 50 3
13 51 4
13 52 4
13 53 4
13 54 5
13 55 4
13 56 5
13 57 5
13 58 4
13 59 4
13 60 3
13 61 4
13 62 1
13 63 3
13 64 2
13 65 3
13 66 2
13 67 3
13 68 2
13 69 5
13 70 1
13 71 2
13 72 5
13 73 2
13 74 1
13 75 3
13 76 1
13 77 5
13 78 3
13 79 1
13 80 3
13 81 5
13 82 3
13 83 2
13 84 3
13 85 4
13 86 4
13 87 1
13 88 5
13 89 2
13 90 1
13 91 2
13 92 3
13 93 3
13 94 2
13 95 2
13 96 4
13 97 4
13 98 4
13 99 1
13 100 4
14 15 4
14 16 1
14 17 3
14 18 2
14 19 2
14 20 1
14 21 4
14 22 3
14 23 2
14 24 1
14 25 4
14 26 3
14 27 3
14 28 4
14 29 2
14 30 3
14 31 1
14 32 3
14 33 1
14 34 1
14 35 3
14 36 2
14 37 3
14 38 5
14 39 2
14 40 5
14 41 4
14 42 4
14 43 5
14 44 2
14 45 3
14 46 4
14 47 5
14 48 2
14 49 1
14 50 3
14 51 2
14 52 3
14 53 2
14 54 1
14 55 5
14 56 5
14 57 2
14 58 5
14 59 1
14 60 2
14 61 1
14 62 1
14 63 4
14 64 1
14 65 4
14 66 5
14 67 5
14 68 1
14 69 4
14 70 3
14 71 3
14 72 2
14 73 1
14 74 5
14 75 3
14 76 5
14 77 4
14 78 2
14 79 4
14 80 5
14 81 4
14 82 1
14 83 2
14 84 4
14 85 5
14 86 1
14 87 4
14 88 4
14 89 4
14 90 4
14 91 5
14 92 2
14 93 4
14 94 2
14 95 5
14 96 4
14 97 3
14 98 2
14 99 4
14 100 3
15 16 1
15 17 4
15 18 3
15 19 3
15 20 2
15 21 5
15 22 2
15 23 1
15 24 3
15 25 3
15 26 3
15 27 5
15 28 4
15 29 2
15 30 5
15 31 5
15 32 1
15 33 5
15 34 3
15 35 1
15 36 4
15 37 3
15 38 5
15 39 3
15 40 2
15 41 5
15 42 5
15 43 3
15 44 1
15 45 4
15 46 3
15 47 5
15 48 3
15 49 4
15 50 4
15 51 2
15 52 3
15 53 3
15 54 3
15 55 2
15 56 4
15 57 3
15 58 2
15 59 5
15 60 1
15 61 5
15 62 2
15 63 4
15 64 3
15 65 1
15 66 2
15 67 5
15 68 5
15 69 1
15 70 5
15 71 5
15 72 3
15 73 4
15 74 3
15 75 2
15 76 5
15 77 5
15 78 1
15 79 2
15 80 4
15 81 1
15 82 3
15 83 3
15 84 3
15 85 5
15 86 3
15 87 2
15 88 1
15 89 3
15 90 2
15 91 3
15 92 4
15 93 1
15 94 4
15 95 1
15 96 2
15 97 4
15 98 2
15 99 1
15 100 2
16 17 5
16 18 2
16 19 4
16 20 5
16 21 2
16 22 3
16 23 1
16 24 2
16 25 1
16 26 3
16 27 2
16 28 2
16 29 1
16 30 2
16 31 2
16 32 3
16 33 5
16 34 4
16 35 2
16 36 2
16 37 4
16 38 1
16 39 2
16 40 1
16 41 4
16 42 3
16 43 1
16 44 2
16 45 2
16 46 5
16 47 1
16 48 4
16 49 5
16 50 1
16 51 4
16 52 3
16 53 3
16 54 4
16 55 4
16 56 3
16 57 2
16 58 4
16 59 5
16 60 5
16 61 5
16 62 2
16 63 2
16 64 5
16 65 2
16 66 3
16 67 3
16 68 1
16 69 4
16 70 2
16 71 4
16 72 1
16 73 5
16 74 2
16 75 1
16 76 4
16 77 4
16 78 4
16 79 1
16 80 4
16 81 3
16 82 3
16 83 2
16 84 4
16 85 1
16 86 2
16 87 3
16 88 4
16 89 5
16 90 5
16 91 4
16 92 5
16 93 4
16 94 1
16 95 5
16 96 4
16 97 4
16 98 2
16 99 1
16 100 4
17 18 5
17 19 2
17 20 3
17 21 1
17 22 2
17 23 2
17 24 1
17 25 2
17 26 1
17 27 5
17 28 3
17 29 2
17 30 2
17 31 4
17 32 5
17 33 1
17 34 5
17 35 3
17 36 3
17 37 4
17 38 1
17 39 5
17 40 4
17 41 1
17 42 4
17 43 4
17 44 2
17 45 1
17 46 5
17 47 3
17 48 5
17 49 4
17 50 4
17 51 5
17 52 1
17 53 5
17 54 4
17 55 2
17 56 5
17 57 4
17 58 2
17 59 5
17 60 1
17 61 5
17 62 5
17 63 3
17 64 5
17 65 1
17 66 1
17 67 2
17 68 1
17 69 3
17 70 5
17 71 4
17 72 4
17 73 5
17 74 4
17 75 5
17 76 1
17 77 2
17 78 1
17 79 2
17 80 3
17 81 2
17 82 4
17 83 5
17 84 5
17 85 3
17 86 5
17 87 4
17 88 3
17 89 4
17 90 2
17 91 2
17 92 3
17 93 2
17 94 3
17 95 3
17 96 5
17 97 3
17 98 4
17 99 2
17 100 5
18 19 4
18 20 3
18 21 5
18 22 5
18 23 4
18 24 4
18 25 4
18 26 5
18 27 4
18 28 3
18 29 3
18 30 2
18 31 2
18 32 2
18 33 3
18 34 3
18 35 3
18 36 5
18 37 4
18 38 1
18 39 3
18 40 4
18 41 2
18 42 2
18 43 3
18 44 1
18 45 1
18 46 1
18 47 4
18 48 4
18 49 5
18 50 4
18 51 4
18 52 2
18 53 5
18 54 1
18 55 5
18 56 2
18 57 2
18 58 2
18 59 5
18 60 4
18 61 2
18 62 4
18 63 2
18 64 5
18 65 5
18 66 4
18 67 5
18 68 5
18 69 4
18 70 3
18 71 5
18 72 3
18 73 2
18 74 4
18 75 1
18 76 2
18 77 5
18 78 3
18 79 5
18 80 1
18 81 3
18 82 4
18 83 1
18 84 1
18 85 4
18 86 1
18 87 5
18 88 5
18 89 2
18 90 3
18 91 5
18 92 4
18 93 2
18 94 4
18 95 3
18 96 3
18 97 4
18 98 1
18 99 5
18 100 2
19 20 2
19 21 4
19 22 4
19 23 4
19 24 1
19 25 3
19 26 2
19 27 5
19 28 1
19 29 1
19 30 4
19 31 4
19 32 1
19 33 2
19 34 1
19 35 4
19 36 2
19 37 3
19 38 1
19 39 2
19 40 2
19 41 4
19 42 5
19 43 4
19 44 4
19 45 1
19 46 2
19 47 5
19 48 3
19 49 4
19 50 5
19 51 3
19 52 4
19 53 2
19 54 5
19 55 3
19 56 2
19 57 3
19 58 1
19 59 3
19 60 2
19 61 4
19 62 1
19 63 1
19 64 3
19 65 5
19 66 1
19 67 4
19 68 2
19 69 2
19 70 1
19 71 4
19 72 2
19 73 2
19 74 2
19 75 2
19 76 4
19 77 3
19 78 3
19 79 4
19 80 1
19 81 5
19 82 1
19 83 5
19 84 5
19 85 5
19 86 5
19 87 5
19 88 5
19 89 2
19 90 2
19 91 2
19 92 5
19 93 3
19 94 5
19 95 4
19 96 3
19 97 1
19 98 4
19 99 3
19 100 3
20 21 1
20 22 3
20 23 5
20 24 4
20 25 4
20 26 5
20 27 4
20 28 1
20 29 5
20 30 3
20 31 1
20 32 5
20 33 5
20 34 3
20 35 4
20 36 4
20 37 2
20 38 3
20 39 1
20 40 2
20 41 2
20 42 4
20 43 3
20 44 4
20 45 2
20 46 5
20 47 2
20 48 1
20 49 2
20 50 5
20 51 3
20 52 1
20 53 3
20 54 1
20 55 1
20 56 2
20 57 5
20 58 4
20 59 3
20 60 1
20 61 1
20 62 3
20 63 2
20 64 5
20 65 3
20 66 5
20 67 5
20 68 3
20 69 1
20 70 5
20 71 5
20 72 1
20 73 3
20 74 1
20 75 5
20 76 3
20 77 5
20 78 3
20 79 3
20 80 3
20 81 5
20 82 2
20 83 5
20 84 2
20 85 1
20 86 3
20 87 5
20 88 1
20 89 5
20 90 3
20 91 4
20 92 5
20 93 1
20 94 2
20 95 3
20 96 1
20 97 2
20 98 3
20 99 4
20 100 3
21 22 5
21 23 3
21 24 3
21 25 2
21 26 1
21 27 1
21 28 4
21 29 1
21 30 1
21 31 1
21 32 5
21 33 3
21 34 2
21 35 2
21 36 1
21 37 2
21 38 5
21 39 1
21 40 5
21 41 4
21 42 2
21 43 2
21 44 4
21 45 5
21 46 2
21 47 4
21 48 3
21 49 3
21 50 1
21 51 2
21 52 2
21 53 3
21 54 5
21 55 3
21 56 2
21 57 2
21 58 2
21 59 4
21 60 4
21 61 5
21 62 1
21 63 2
21 64 4
21 65 1
21 66 3
21 67 1
21 68 5
21 69 3
21 70 3
21 71 2
21 72 4
21 73 5
21 74 1
21 75 5
21 76 2
21 77 4
21 78 1
21 79 4
21 80 1
21 81 2
21 82 2
21 83 5
21 84 5
21 85 4
21 86 4
21 87 5
21 88 4
21 89 1
21 90 3
21 91 5
21 92 2
21 93 3
21 94 2
21 95 4
21 96 2
21 97 4
21 98 4
21 99 5
21 100 2
22 23 1
22 24 4
22 25 5
22 26 5
22 27 2
22 28 3
22 29 3
22 30 1
22 31 3
22 32 1
22 33 3
22 34 4
22 35 5
22 36 1
22 37 5
22 38 5
22 39 5
22 40 1
22 41 5
22 42 3
22 43 5
22 44 2
22 45 5
22 46 2
22 47 1
22 48 3
22 49 4
22 50 3
22 51 2
22 52 3
22 53 2
22 54 1
22 55 1
22 56 2
22 57 2
22 58 4
22 59 3
22 60 5
22 61 1
22 62 1
22 63 1
22 64 1
22 65 5
22 66 1
22 67 5
22 68 5
22 69 5
22 70 1
22 71 1
22 72 4
22 73 5
22 74 3
22 75 2
22 76 4
22 77 1
22 78 4
22 79 2
22 80 2
22 81 2
22 82 5
22 83 1
22 84 1
22 85 4
22 86 4
22 87 3
22 88 4
22 89 1
22 90 1
22 91 2
22 92 2
22 93 1
22 94 3
22 95 4
22 96 1
22 97 5
22 98 1
22 99 2
22 100 2
23 24 5
23 25 3
23 26 2
23 27 4
23 28 3
23 29 4
23 30 1
23 31 5
23 32 3
23 33 2
23 34 1
23 35 3
23 36 4
23 37 3
23 38 3
23 39 5
23 40 4
23 41 3
23 42 4
23 43 5
23 44 1
23 45 2
23 46 3
23 47 5
23 48 5
23 49 5
23 50 3
23 51 3
23 52 4
23 53 2
23 54 2
23 55 5
23 56 4
23 57 5
23 58 4
23 59 2
23 60 4
23 61 5
23 62 2
23 63 1
23 64 5
23 65 5
23 66 2
23 67 2
23 68 1
23 69 2
23 70 3
23 71 1
23 72 4
23 73 4
23 74 5
23 75 2
23 76 2
23 77 1
23 78 5
23 79 2
23 80 5
23 81 3
23 82 2
23 83 2
23 84 2
23 85 4
23 86 5
23 87 3
23 88 2
23 89 2
23 90 1
23 91 3
23 92 1
23 93 1
23 94 5
23 95 3
23 96 2
23 97 3
23 98 5
23 99 5
23 100 1
24 25 1
24 26 1
24 27 2
24 28 5
24 29 3
24 30 1
24 31 5
24 32 5
24 33 3
24 34 1
24 35 5
24 36 5
24 37 2
24 38 1
24 39 2
24 40 4
24 41 2
24 42 2
24 43 1
24 44 2
24 45 2
24 46 1
24 47 5
24 48 1
24 49 2
24 50 5
24 51 2
24 52 1
24 53 2
24 54 2
24 55 5
24 56 5
24 57 5
24 58 1
24 59 4
24 60 5
24 61 3
24 62 5
24 63 4
24 64 1
24 65 4
24 66 2
24 67 5
24 68 2
24 69 4
24 70 4
24 71 4
24 72 5
24 73 2
24 74 1
24 75 3
24 76 3
24 77 3
24 78 1
24 79 1
24 80 2
24 81 4
24 82 1
24 83 2
24 84 4
24 85 2
24 86 2
24 87 5
24 88 1
24 89 4
24 90 3
24 91 4
24 92 3
24 93 1
24 94 4
24 95 4
24 96 5
24 97 1
24 98 1
24 99 3
24 100 5
25 26 4
25 27 4
25 28 2
25 29 4
25 30 5
25 31 2
25 32 2
25 33 4
25 34 5
25 35 2
25 36 5
25 37 3
25 38 1
25 39 3
25 40 4
25 41 3
25 42 1
25 43 4
25 44 2
25 45 5
25 46 2
25 47 2
25 48 4
25 49 2
25 50 2
25 51 2
25 52 2
25 53 5
25 54 1
25 55 4
25 56 5
25 57 3
25 58 5
25 59 1
25 60 5
25 61 5
25 62 4
25 63 2
25 64 3
25 65 4
25 66 3
25 67 5
25 68 4
25 69 1
25 70 1
25 71 5
25 72 5
25 73 3
25 74 4
25 75 5
25 76 1
25 77 1
25 78 5
25 79 2
25 80 2
25 81 3
25 82 3
25 83 2
25 84 1
25 85 3
25 86 5
25 87 1
25 88 1
25 89 4
25 90 1
25 91 2
25 92 2
25 93 5
25 94 5
25 95 5
25 96 5
25 97 5
25 98 3
25 99 3
25 100 4
26 27 5
26 28 5
26 29 1
26 30 4
26 31 5
26 32 4
26 33 4
26 34 4
26 35 4
26 36 5
26 37 3
26 38 2
26 39 1
26 40 5
26 41 1
26 42 3
26 43 5
26 44 2
26 45 4
26 46 2
26 47 3
26 48 1
26 49 2
26 50 4
26 51 3
26 52 3
26 53 2
26 54 2
26 55 4
26 56 2
26 57 1
26 58 2
26 59 2
26 60 4
26 61 1
26 62 4
26 63 4
26 64 2
26 65 5
26 66 4
26 67 1
26 68 1
26 69 2
26 70 2
26 71 3
26 72 5
26 73 5
26 74 1
26 75 1
26 76 5
26 77 1
26 78 5
26 79 4
26 80 2
26 81 4
26 82 1
26 83 1
26 84 1
26 85 4
26 86 2
26 87 5
26 88 2
26 89 5
26 90 2
26 91 3
26 92 4
26 93 5
26 94 5
26 95 4
26 96 5
26 97 1
26 98 2
26 99 1
26 100 2
27 28 2
27 29 2
27 30 1
27 31 5
27 32 3
27 33 3
27 34 2
27 35 4
27 36 3
27 37 3
27 38 3
27 39 1
27 40 1
27 41 4
27 42 2
27 43 1
27 44 4
27 45 1
27 46 1
27 47 1
27 48 5
27 49 5
27 50 4
27 51 4
27 52 3
27 53 5
27 54 4
27 55 1
27 56 5
27 57 5
27 58 3
27 59 4
27 60 2
27 61 3
27 62 3
27 63 5
27 64 4
27 65 1
27 66 2
27 67 3
27 68 1
27 69 3
27 70 2
27 71 5
27 72 5
27 73 2
27 74 1
27 75 5
27 76 5
27 77 2
27 78 2
27 79 1
27 80 1
27 81 5
27 82 1
27 83 3
27 84 1
27 85 2
27 86 4
27 87 1
27 88 3
27 89 4
27 90 2
27 91 2
27 92 2
27 93 5
27 94 1
27 95 5
27 96 5
27 97 2
27 98 5
27 99 4
27 100 4
28 29 3
28 30 2
28 31 4
28 32 1
28 33 4
28 34 1
28 35 2
28 36 5
28 37 3
28 38 2
28 39 3
28 40 2
28 41 5
28 42 4
28 43 1
28 44 3
28 45 1
28 46 2
28 47 2
28 48 1
28 49 5
28 50 2
28 51 3
28 52 2
28 53 3
28 54 2
28 55 4
28 56 3
28 57 1
28 58 4
28 59 1
28 60 5
28 61 3
28 62 1
28 63 2
28 64 5
28 65 2
28 66 5
28 67 3
28 68 1
28 69 5
28 70 4
28 71 3
28 72 3
28 73 5
28 74 1
28 75 1
28 76 2
28 77 4
28 78 2
28 79 2
28 80 3
28 81 2
28 82 1
28 83 3
28 84 5
28 85 2
28 86 1
28 87 2
28 88 3
28 89 4
28 90 1
28 91 4
28 92 2
28 93 5
28 94 1
28 95 5
28 96 5
28 97 4
28 98 4
28 99 4
28 100 1
29 30 3
29 31 3
29 32 5
29 33 4
29 34 1
29 35 4
29 36 2
29 37 1
29 38 5
29 39 5
29 40 5
29 41 2
29 42 3
29 43 3
29 44 2
29 45 1
29 46 1
29 47 1
29 48 2
29 49 2
29 50 3
29 51 5
29 52 5
29 53 4
29 54 5
29 55 5
29 56 1
29 57 2
29 58 5
29 59 4
29 60 1
29 61 3
29 62 1
29 63 3
29 64 3
29 65 5
29 66 2
29 67 4
29 68 5
29 69 3
29 70 2
29 71 3
29 72 3
29 73 2
29 74 4
29 75 3
29 76 1
29 77 2
29 78 2
29 79 2
29 80 4
29 81 4
29 82 1
29 83 2
29 84 1
29 85 4
29 86 1
29 87 1
29 88 2
29 89 5
29 90 5
29 91 3
29 92 3
29 93 5
29 94 4
29 95 4
29 96 3
29 97 3
29 98 2
29 99 3
29 100 2
30 31 4
30 32 2
30 33 4
30 34 2
30 35 3
30 36 2
30 37 1
30 38 1
30 39 1
30 40 4
30 41 4
30 42 2
30 43 3
30 44 1
30 45 3
30 46 4
30 47 3
30 48 2
30 49 2
30 50 2
30 51 3
30 52 1
30 53 4
30 54 2
30 55 4
30 56 3
30 57 1
30 58 4
30 59 5
30 60 2
30 61 2
30 62 4
30 63 2
30 64 2
30 65 2
30 66 2
30 67 5
30 68 3
30 69 2
30 70 3
30 71 4
30 72 4
30 73 3
30 74 2
30 75 2
30 76 1
30 77 4
30 78 3
30 79 3
30 80 2
30 81 3
30 82 5
30 83 5
30 84 1
30 85 2
30 86 4
30 87 2
30 88 4
30 89 1
30 90 3
30 91 4
30 92 2
30 93 5
30 94 4
30 95 5
30 96 1
30 97 3
30 98 2
30 99 5
30 100 5
31 32 1
31 33 5
31 34 1
31 35 1
31 36 2
31 37 3
31 38 4
31 39 4
31 40 2
31 41 2
31 42 3
31 43 2
31 44 2
31 45 4
31 46 2
31 47 5
31 48 1
31 49 1
31 50 2
31 51 3
31 52 5
31 53 1
31 54 2
31 55 4
31 56 2
31 57 4
31 58 2
31 59 1
31 60 5
31 61 1
31 62 5
31 63 5
31 64 3
31 65 5
31 66 1
31 67 5
31 68 4
31 69 5
31 70 3
31 71 1
31 72 3
31 73 2
31 74 2
31 75 3
31 76 2
31 77 1
31 78 2
31 79 4
31 80 2
31 81 1
31 82 1
31 83 5
31 84 3
31 85 2
31 86 5
31 87 5
31 88 4
31 89 2
31 90 4
31 91 4
31 92 3
31 93 5
31 94 3
31 95 4
31 96 1
31 97 4
31 98 2
31 99 1
31 100 4
32 33 3
32 34 4
32 35 4
32 36 4
32 37 3
32 38 5
32 39 4
32 40 4
32 41 5
32 42 1
32 43 4
32 44 3
32 45 1
32 46 4
32 47 4
32 48 2
32 49 2
32 50 4
32 51 1
32 52 4
32 53 2
32 54 2
32 55 2
32 56 5
32 57 3
32 58 1
32 59 4
32 60 2
32 61 4
32 62 2
32 63 3
32 64 3
32 65 2
32 66 5
32 67 3
32 68 3
32 69 4
32 70 4
32 71 5
32 72 4
32 73 4
32 74 1
32 75 2
32 76 4
32 77 1
32 78 4
32 79 3
32 80 3
32 81 1
32 82 3
32 83 2
32 84 5
32 85 5
32 86 1
32 87 1
32 88 1
32 89 3
32 90 2
32 91 1
32 92 1
32 93 2
32 94 4
32 95 2
32 96 3
32 97 1
32 98 3
32 99 1
32 100 5
33 34 4
33 35 2
33 36 2
33 37 5
33 38 4
33 39 5
33 40 4
33 41 2
33 42 3
33 43 4
33 44 5
33 45 1
33 46 5
33 47 3
33 48 5
33 49 5
33 50 5
33 51 5
33 52 5
33 53 4
33 54 1
33 55 5
33 56 5
33 57 3
33 58 1
33 59 5
33 60 2
33 61 2
33 62 5
33 63 1
33 64 5
33 65 3
33 66 5
33 67 4
33 68 5
33 69 3
33 70 3
33 71 2
33 72 3
33 73 4
33 74 1
33 75 1
33 76 1
33 77 3
33 78 4
33 79 4
33 80 2
33 81 1
33 82 4
33 83 5
33 84 2
33 85 1
33 86 4
33 87 1
33 88 4
33 89 1
33 90 4
33 91 3
33 92 3
33 93 2
33 94 2
33 95 4
33 96 5
33 97 2
33 98 1
33 99 1
33 100 4
34 35 3
34 36 1
34 37 4
34 38 2
34 39 2
34 40 1
34 41 1
34 42 4
34 43 4
34 44 3
34 45 3
34 46 1
34 47 1
34 48 4
34 49 1
34 50 5
34 51 4
34 52 3
34 53 4
34 54 5
34 55 4
34 56 4
34 57 3
34 58 1
34 59 4
34 60 1
34 61 3
34 62 4
34 63 2
34 64 3
34 65 2
34 66 4
34 67 1
34 68 5
34 69 2
34 70 1
34 71 2
34 72 1
34 73 4
34 74 1
34 75 1
34 76 4
34 77 5
34 78 3
34 79 5
34 80 4
34 81 2
34 82 3
34 83 5
34 84 5
34 85 1
34 86 4
34 87 2
34 88 5
34 89 5
34 90 3
34 91 4
34 92 1
34 93 5
34 94 2
34 95 3
34 96 4
34 97 2
34 98 4
34 99 3
34 100 3
35 36 4
35 37 4
35 38 5
35 39 5
35 40 3
35 41 3
35 42 1
35 43 5
35 44 2
35 45 5
35 46 5
35 47 5
35 48 1
35 49 5
35 50 1
35 51 2
35 52 5
35 53 1
35 54 4
35 55 2
35 56 1
35 57 2
35 58 1
35 59 3
35 60 3
35 61 3
35 62 1
35 63 3
35 64 5
35 65 3
35 66 3
35 67 3
35 68 5
35 69 3
35 70 5
35 71 1
35 72 2
35 73 2
35 74 2
35 75 4
35 76 3
35 77 1
35 78 4
35 79 4
35 80 4
35 81 2
35 82 1
35 83 3
35 84 3
35 85 1
35 86 1
35 87 3
35 88 5
35 89 3
35 90 4
35 91 5
35 92 2
35 93 3
35 94 1
35 95 3
35 96 4
35 97 1
35 98 1
35 99 5
35 100 1
36 37 1
36 38 5
36 39 5
36 40 5
36 41 3
36 42 5
36 43 1
36 44 4
36 45 3
36 46 5
36 47 1
36 48 2
36 49 2
36 50 1
36 51 5
36 52 4
36 53 5
36 54 3
36 55 2
36 56 2
36 57 2
36 58 2
36 59 1
36 60 1
36 61 3
36 62 1
36 63 3
36 64 4
36 65 3
36 66 4
36 67 3
36 68 1
36 69 4
36 70 4
36 71 1
36 72 5
36 73 3
36 74 2
36 75 3
36 76 3
36 77 2
36 78 4
36 79 5
36 80 3
36 81 1
36 82 3
36 83 1
36 84 3
36 85 1
36 86 2
36 87 1
36 88 4
36 89 4
36 90 1
36 91 4
36 92 4
36 93 5
36 94 4
36 95 3
36 96 4
36 97 4
36 98 1
36 99 1
36 100 1
37 38 1
37 39 4
37 40 5
37 41 5
37 42 2
37 43 2
37 44 2
37 45 3
37 46 4
37 47 2
37 48 1
37 49 5
37 50 3
37 51 1
37 52 2
37 53 2
37 54 4
37 55 3
37 56 2
37 57 2
37 58 5
37 59 2
37 60 5
37 61 5
37 62 4
37 63 2
37 64 2
37 65 4
37 66 1
37 67 2
37 68 1
37 69 1
37 70 5
37 71 5
37 72 4
37 73 3
37 74 2
37 75 4
37 76 2
37 77 5
37 78 4
37 79 3
37 80 2
37 81 1
37 82 3
37 83 2
37 84 4
37 85 3
37 86 3
37 87 3
37 88 1
37 89 5
37 90 4
37 91 2
37 92 4
37 93 2
37 94 1
37 95 4
37 96 2
37 97 1
37 98 2
37 99 5
37 100 2
38 39 1
38 40 5
38 41 4
38 42 1
38 43 3
38 44 4
38 45 2
38 46 1
38 47 1
38 48 2
38 49 1
38 50 5
38 51 1
38 52 1
38 53 2
38 54 3
38 55 4
38 56 4
38 57 1
38 58 3
38 59 2
38 60 3
38 61 4
38 62 1
38 63 1
38 64 3
38 65 2
38 66 4
38 67 1
38 68 2
38 69 5
38 70 2
38 71 2
38 72 3
38 73 5
38 74 4
38 75 5
38 76 4
38 77 5
38 78 4
38 79 4
38 80 1
38 81 1
38 82 4
38 83 2
38 84 4
38 85 5
38 86 3
38 87 2
38 88 2
38 89 4
38 90 2
38 91 4
38 92 5
38 93 5
38 94 3
38 95 3
38 96 1
38 97 4
38 98 3
38 99 2
38 100 4
39 40 4
39 41 1
39 42 5
39 43 5
39 44 3
39 45 2
39 46 1
39 47 3
39 48 2
39 49 3
39 50 3
39 51 1
39 52 5
39 53 1
39 54 5
39 55 3
39 56 4
39 57 2
39 58 5
39 59 2
39 60 4
39 61 2
39 62 4
39 63 3
39 64 1
39 65 5
39 66 3
39 67 1
39 68 5
39 69 3
39 70 4
39 71 4
39 72 5
39 73 2
39 74 3
39 75 4
39 76 4
39 77 3
39 78 5
39 79 4
39 80 1
39 81 1
39 82 1
39 83 3
39 84 4
39 85 2
39 86 4
39 87 1
39 88 2
39 89 3
39 90 2
39 91 3
39 92 5
39 93 5
39 94 4
39 95 5
39 96 2
39 97 4
39 98 3
39 99 2
39 100 4
40 41 4
40 42 3
40 43 1
40 44 1
40 45 5
40 46 5
40 47 1
40 48 4
40 49 3
40 50 1
40 51 1
40 52 4
40 53 1
40 54 2
40 55 3
40 56 1
40 57 3
40 58 5
40 59 4
40 60 3
40 61 3
40 62 2
40 63 1
40 64 3
40 65 2
40 66 1
40 67 5
40 68 5
40 69 4
40 70 5
40 71 4
40 72 2
40 73 3
40 74 2
40 75 5
40 76 2
40 77 5
40 78 2
40 79 4
40 80 2
40 81 2
40 82 5
40 83 2
40 84 3
40 85 4
40 86 2
40 87 3
40 88 1
40 89 5
40 90 5
40 91 5
40 92 5
40 93 5
40 94 1
40 95 3
40 96 4
40 97 1
40 98 2
40 99 1
40 100 1
41 42 2
41 43 5
41 44 2
41 45 5
41 46 4
41 47 5
41 48 3
41 49 4
41 50 1
41 51 2
41 52 2
41 53 1
41 54 1
41 55 3
41 56 4
41 57 2
41 58 5
41 59 1
41 60 4
41 61 4
41 62 4
41 63 4
41 64 4
41 65 3
41 66 1
41 67 5
41 68 1
41 69 3
41 70 2
41 71 5
41 72 3
41 73 1
41 74 3
41 75 1
41 76 5
41 77 4
41 78 3
41 79 2
41 80 5
41 81 3
41 82 1
41 83 5
41 84 4
41 85 2
41 86 4
41 87 1
41 88 5
41 89 2
41 90 4
41 91 3
41 92 2
41 93 4
41 94 3
41 95 2
41 96 2
41 97 4
41 98 4
41 99 4
41 100 4
42 43 5
42 44 5
42 45 5
42 46 1
42 47 2
42 48 5
42 49 3
42 50 4
42 51 1
42 52 2
42 53 1
42 54 2
42 55 5
42 56 1
42 57 3
42 58 2
42 59 3
42 60 1
42 61 3
42 62 3
42 63 3
42 64 4
42 65 3
42 66 2
42 67 4
42 68 1
42 69 5
42 70 2
42 71 2
42 72 3
42 73 5
42 74 3
42 75 3
42 76 4
42 77 4
42 78 3
42 79 4
42 80 4
42 81 3
42 82 3
42 83 4
42 84 5
42 85 2
42 86 4
42 87 3
42 88 2
42 89 1
42 90 1
42 91 1
42 92 2
42 93 3
42 94 5
42 95 1
42 96 2
42 97 2
42 98 5
42 99 2
42 100 4
43 44 5
43 45 3
43 46 3
43 47 2
43 48 5
43 49 2
43 50 2
43 51 1
43 52 2
43 53 5
43 54 1
43 55 2
43 56 1
43 57 3
43 58 4
43 59 5
43 60 5
43 61 3
43 62 3
43 63 4
43 64 3
43 65 1
43 66 1
43 67 1
43 68 4
43 69 3
43 70 4
43 71 3
43 72 2
43 73 1
43 74 4
43 75 3
43 76 5
43 77 2
43 78 3
43 79 1
43 80 1
43 81 4
43 82 5
43 83 5
43 84 4
43 85 4
43 86 5
43 87 4
43 88 4
43 89 5
43 90 3
43 91 2
43 92 5
43 93 2
43 94 1
43 95 1
43 96 4
43 97 2
43 98 5
43 99 2
43 100 3
44 45 2
44 46 2
44 47 3
44 48 2
44 49 1
44 50 2
44 51 2
44 52 4
44 53 2
44 54 2
44 55 1
44 56 5
44 57 5
44 58 3
44 59 5
44 60 4
44 61 3
44 62 2
44 63 2
44 64 1
44 65 2
44 66 1
44 67 4
44 68 3
44 69 4
44 70 4
44 71 5
44 72 3
44 73 1
44 74 1
44 75 3
44 76 2
44 77 5
44 78 2
44 79 5
44 80 4
44 81 5
44 82 4
44 83 4
44 84 3
44 85 3
44 86 3
44 87 3
44 88 4
44 89 1
44 90 1
44 91 3
44 92 3
44 93 5
44 94 3
44 95 1
44 96 2
44 97 3
44 98 2
44 99 5
44 100 3
45 46 1
45 47 2
45 48 2
45 49 2
45 50 1
45 51 3
45 52 1
45 53 1
45 54 2
45 55 1
45 56 3
45 57 3
45 58 4
45 59 3
45 60 2
45 61 5
45 62 1
45 63 5
45 64 2
45 65 2
45 66 2
45 67 3
45 68 4
45 69 4
45 70 2
45 71 4
45 72 3
45 73 3
45 74 4
45 75 2
45 76 4
45 77 2
45 78 2
45 79 5
45 80 1
45 81 3
45 82 1
45 83 1
45 84 3
45 85 2
45 86 1
45 87 5
45 88 1
45 89 4
45 90 2
45 91 5
45 92 4
45 93 5
45 94 1
45 95 4
45 96 4
45 97 1
45 98 4
45 99 5
45 100 4
46 47 2
46 48 1
46 49 5
46 50 2
46 51 5
46 52 3
46 53 1
46 54 2
46 55 2
46 56 4
46 57 3
46 58 5
46 59 2
46 60 2
46 61 5
46 62 1
46 63 3
46 64 5
46 65 2
46 66 5
46 67 5
46 68 3
46 69 4
46 70 2
46 71 3
46 72 1
46 73 1
46 74 1
46 75 2
46 76 4
46 77 3
46 78 4
46 79 4
46 80 3
46 81 2
46 82 3
46 83 3
46 84 4
46 85 4
46 86 1
46 87 2
46 88 2
46 89 1
46 90 1
46 91 5
46 92 1
46 93 3
46 94 1
46 95 5
46 96 4
46 97 2
46 98 4
46 99 5
46 100 4
47 48 4
47 49 1
47 50 1
47 51 5
47 52 3
47 53 2
47 54 3
47 55 2
47 56 5
47 57 5
47 58 5
47 59 2
47 60 3
47 61 3
47 62 3
47 63 4
47 64 5
47 65 4
47 66 1
47 67 4
47 68 3
47 69 3
47 70 4
47 71 5
47 72 2
47 73 3
47 74 5
47 75 3
47 76 2
47 77 4
47 78 1
47 79 4
47 80 1
47 81 1
47 82 2
47 83 2
47 84 1
47 85 2
47 86 3
47 87 3
47 88 5
47 89 3
47 90 1
47 91 5
47 92 5
47 93 2
47 94 3
47 95 3
47 96 3
47 97 3
47 98 4
47 99 2
47 100 4
48 49 2
48 50 4
48 51 4
48 52 5
48 53 3
48 54 4
48 55 4
48 56 1
48 57 4
48 58 3
48 59 5
48 60 1
48 61 2
48 62 2
48 63 5
48 64 4
48 65 4
48 66 3
48 67 5
48 68 4
48 69 4
48 70 5
48 71 2
48 72 5
48 73 5
48 74 4
48 75 5
48 76 3
48 77 3
48 78 4
48 79 2
48 80 5
48 81 1
48 82 1
48 83 2
48 84 3
48 85 5
48 86 1
48 87 2
48 88 1
48 89 1
48 90 4
48 91 3
48 92 3
48 93 3
48 94 3
48 95 2
48 96 4
48 97 2
48 98 4
48 99 4
48 100 5
49 50 5
49 51 1
49 52 4
49 53 5
49 54 1
49 55 1
49 56 3
49 57 2
49 58 5
49 59 3
49 60 5
49 61 1
49 62 4
49 63 5
49 64 5
49 65 1
49 66 3
49 67 1
49 68 2
49 69 3
49 70 3
49 71 1
49 72 3
49 73 5
49 74 1
49 75 3
49 76 2
49 77 1
49 78 1
49 79 2
49 80 4
49 81 1
49 82 1
49 83 3
49 84 3
49 85 2
49 86 4
49 87 1
49 88 5
49 89 4
49 90 4
49 91 5
49 92 5
49 93 4
49 94 5
49 95 3
49 96 2
49 97 1
49 98 2
49 99 5
49 100 5
50 51 3
50 52 3
50 53 2
50 54 3
50 55 2
50 56 3
50 57 2
50 58 1
50 59 1
50 60 4
50 61 5
50 62 1
50 63 2
50 64 4
50 65 5
50 66 2
50 67 5
50 68 3
50 69 5
50 70 4
50 71 4
50 72 1
50 73 4
50 74 4
50 75 4
50 76 2
50 77 3
50 78 2
50 79 4
50 80 4
50 81 5
50 82 2
50 83 5
50 84 3
50 85 3
50 86 1
50 87 1
50 88 5
50 89 1
50 90 2
50 91 2
50 92 1
50 93 1
50 94 1
50 95 2
50 96 2
50 97 4
50 98 2
50 99 3
50 100 5
51 52 4
51 53 3
51 54 1
51 55 5
51 56 4
51 57 2
51 58 4
51 59 5
51 60 5
51 61 2
51 62 5
51 63 4
51 64 1
51 65 1
51 66 3
51 67 1
51 68 1
51 69 1
51 70 1
51 71 1
51 72 4
51 73 1
51 74 2
51 75 2
51 76 1
51 77 4
51 78 1
51 79 3
51 80 1
51 81 1
51 82 4
51 83 5
51 84 2
51 85 1
51 86 5
51 87 3
51 88 5
51 89 5
51 90 5
51 91 4
51 92 5
51 93 4
51 94 2
51 95 2
51 96 4
51 97 4
51 98 3
51 99 4
51 100 5
52 53 1
52 54 1
52 55 4
52 56 5
52 57 3
52 58 2
52 59 2
52 60 3
52 61 2
52 62 1
52 63 2
52 64 1
52 65 1
52 66 1
52 67 1
52 68 1
52 69 5
52 70 5
52 71 2
52 72 4
52 73 1
52 74 1
52 75 2
52 76 4
52 77 1
52 78 1
52 79 3
52 80 3
52 81 4
52 82 2
52 83 4
52 84 3
52 85 3
52 86 5
52 87 2
52 88 4
52 89 3
52 90 4
52 91 3
52 92 1
52 93 4
52 94 4
52 95 1
52 96 4
52 97 4
52 98 1
52 99 3
52 100 5
53 54 5
53 55 1
53 56 2
53 57 5
53 58 1
53 59 2
53 60 2
53 61 5
53 62 1
53 63 4
53 64 4
53 65 4
53 66 3
53 67 2
53 68 1
53 69 2
53 70 3
53 71 3
53 72 2
53 73 5
53 74 2
53 75 3
53 76 2
53 77 2
53 78 3
53 79 4
53 80 1
53 81 1
53 82 2
53 83 2
53 84 5
53 85 3
53 86 5
53 87 2
53 88 5
53 89 1
53 90 4
53 91 1
53 92 1
53 93 5
53 94 1
53 95 1
53 96 5
53 97 4
53 98 1
53 99 2
53 100 5
54 55 1
54 56 5
54 57 3
54 58 3
54 59 3
54 60 4
54 61 1
54 62 2
54 63 5
54 64 2
54 65 3
54 66 4
54 67 1
54 68 3
54 69 3
54 70 4
54 71 2
54 72 3
54 73 5
54 74 1
54 75 4
54 76 4
54 77 2
54 78 5
54 79 4
54 80 1
54 81 2
54 82 4
54 83 1
54 84 1
54 85 3
54 86 1
54 87 2
54 88 4
54 89 3
54 90 1
54 91 1
54 92 3
54 93 1
54 94 4
54 95 1
54 96 5
54 97 3
54 98 4
54 99 2
54 100 4
55 56 1
55 57 5
55 58 3
55 59 1
55 60 1
55 61 5
55 62 4
55 63 2
55 64 2
55 65 4
55 66 1
55 67 5
55 68 2
55 69 1
55 70 4
55 71 2
55 72 4
55 73 5
55 74 5
55 75 1
55 76 5
55 77 3
55 78 1
55 79 4
55 80 2
55 81 5
55 82 1
55 83 2
55 84 3
55 85 2
55 86 3
55 87 5
55 88 1
55 89 2
55 90 4
55 91 1
55 92 2
55 93 5
55 94 1
55 95 5
55 96 2
55 97 2
55 98 5
55 99 2
55 100 1
56 57 5
56 58 5
56 59 2
56 60 5
56 61 5
56 62 1
56 63 3
56 64 3
56 65 4
56 66 5
56 67 5
56 68 4
56 69 2
56 70 3
56 71 4
56 72 3
56 73 4
56 74 1
56 75 4
56 76 3
56 77 2
56 78 4
56 79 4
56 80 5
56 81 5
56 82 3
56 83 3
56 84 2
56 85 1
56 86 2
56 87 2
56 88 4
56 89 2
56 90 2
56 91 3
56 92 3
56 93 3
56 94 5
56 95 5
56 96 5
56 97 4
56 98 5
56 99 5
56 100 1
57 58 5
57 59 3
57 60 3
57 61 5
57 62 3
57 63 3
57 64 5
57 65 3
57 66 2
57 67 3
57 68 1
57 69 2
57 70 2
57 71 1
57 72 3
57 73 1
57 74 2
57 75 3
57 76 4
57 77 3
57 78 1
57 79 5
57 80 5
57 81 1
57 82 2
57 83 5
57 84 4
57 85 3
57 86 4
57 87 5
57 88 5
57 89 1
57 90 5
57 91 2
57 92 1
57 93 4
57 94 3
57 95 1
57 96 3
57 97 1
57 98 5
57 99 4
57 100 2
58 59 4
58 60 5
58 61 5
58 62 2
58 63 4
58 64 1
58 65 5
58 66 3
58 67 2
58 68 3
58 69 2
58 70 4
58 71 5
58 72 2
58 73 1
58 74 4
58 75 2
58 76 2
58 77 2
58 78 1
58 79 3
58 80 4
58 81 4
58 82 1
58 83 5
58 84 2
58 85 1
58 86 3
58 87 1
58 88 5
58 89 1
58 90 2
58 91 3
58 92 2
58 93 5
58 94 3
58 95 2
58 96 5
58 97 2
58 98 5
58 99 1
58 100 5
59 60 2
59 61 3
59 62 1
59 63 1
59 64 3
59 65 3
59 66 1
59 67 4
59 68 3
59 69 2
59 70 3
59 71 2
59 72 3
59 73 4
59 74 3
59 75 1
59 76 1
59 77 2
59 78 5
59 79 5
59 80 2
59 81 2
59 82 1
59 83 1
59 84 1
59 85 4
59 86 2
59 87 4
59 88 3
59 89 2
59 90 3
59 91 3
59 92 5
59 93 2
59 94 1
59 95 3
59 96 4
59 97 5
59 98 4
59 99 5
59 100 5
60 61 5
60 62 4
60 63 4
60 64 2
60 65 3
60 66 3
60 67 4
60 68 5
60 69 4
60 70 5
60 71 2
60 72 3
60 73 5
60 74 2
60 75 1
60 76 2
60 77 5
60 78 3
60 79 1
60 80 2
60 81 5
60 82 4
60 83 3
60 84 3
60 85 5
60 86 4
60 87 2
60 88 5
60 89 2
60 90 1
60 91 1
60 92 4
60 93 4
60 94 4
60 95 1
60 96 2
60 97 5
60 98 3
60 99 3
60 100 4
61 62 4
61 63 3
61 64 2
61 65 2
61 66 1
61 67 3
61 68 2
61 69 1
61 70 3
61 71 4
61 72 3
61 73 5
61 74 5
61 75 2
61 76 1
61 77 3
61 78 2
61 79 4
61 80 1
61 81 2
61 82 5
61 83 2
61 84 5
61 85 5
61 86 4
61 87 3
61 88 4
61 89 3
61 90 5
61 91 4
61 92 5
61 93 3
61 94 1
61 95 4
61 96 2
61 97 1
61 98 5
61 99 5
61 100 1
62 63 1
62 64 4
62 65 3
62 66 1
62 67 2
62 68 4
62 69 1
62 70 2
62 71 4
62 72 5
62 73 3
62 74 4
62 75 2
62 76 1
62 77 3
62 78 2
62 79 1
62 80 4
62 81 5
62 82 2
62 83 4
62 84 1
62 85 1
62 86 2
62 87 1
62 88 4
62 89 1
62 90 2
62 91 3
62 92 3
62 93 4
62 94 1
62 95 1
62 96 3
62 97 3
62 98 2
62 99 2
62 100 2
63 64 5
63 65 5
63 66 4
63 67 5
63 68 2
63 69 5
63 70 2
63 71 3
63 72 2
63 73 3
63 74 5
63 75 1
63 76 4
63 77 3
63 78 3
63 79 2
63 80 2
63 81 3
63 82 4
63 83 2
63 84 2
63 85 4
63 86 4
63 87 5
63 88 4
63 89 5
63 90 5
63 91 3
63 92 4
63 93 2
63 94 3
63 95 4
63 96 4
63 97 4
63 98 1
63 99 5
63 100 3
64 65 5
64 66 3
64 67 4
64 68 2
64 69 2
64 70 4
64 71 1
64 72 2
64 73 5
64 74 4
64 75 2
64 76 1
64 77 5
64 78 1
64 79 1
64 80 5
64 81 5
64 82 4
64 83 1
64 84 4
64 85 4
64 86 3
64 87 3
64 88 3
64 89 5
64 90 1
64 91 2
64 92 1
64 93 5
64 94 5
64 95 5
64 96 4
64 97 3
64 98 3
64 99 5
64 100 1
65 66 4
65 67 4
65 68 5
65 69 2
65 70 3
65 71 4
65 72 4
65 73 3
65 74 3
65 75 4
65 76 1
65 77 4
65 78 5
65 79 4
65 80 5
65 81 4
65 82 1
65 83 2
65 84 3
65 85 4
65 86 3
65 87 1
65 88 4
65 89 1
65 90 4
65 91 4
65 92 2
65 93 2
65 94 2
65 95 3
65 96 5
65 97 2
65 98 2
65 99 5
65 100 4
66 67 2
66 68 2
66 69 5
66 70 3
66 71 1
66 72 4
66 73 3
66 74 5
66 75 5
66 76 4
66 77 4
66 78 3
66 79 4
66 80 1
66 81 1
66 82 2
66 83 4
66 84 4
66 85 3
66 86 1
66 87 5
66 88 3
66 89 1
66 90 1
66 91 3
66 92 4
66 93 1
66 94 4
66 95 3
66 96 1
66 97 3
66 98 2
66 99 4
66 100 4
67 68 1
67 69 5
67 70 4
67 71 2
67 72 3
67 73 2
67 74 2
67 75 1
67 76 2
67 77 3
67 78 2
67 79 2
67 80 3
67 81 4
67 82 3
67 83 2
67 84 1
67 85 1
67 86 1
67 87 4
67 88 3
67 89 1
67 90 2
67 91 4
67 92 1
67 93 1
67 94 1
67 95 5
67 96 2
67 97 1
67 98 3
67 99 4
67 100 4
68 69 3
68 70 5
68 71 4
68 72 2
68 73 3
68 74 3
68 75 2
68 76 4
68 77 3
68 78 4
68 79 1
68 80 3
68 81 2
68 82 4
68 83 3
68 84 5
68 85 3
68 86 5
68 87 1
68 88 5
68 89 3
68 90 2
68 91 4
68 92 3
68 93 5
68 94 1
68 95 2
68 96 1
68 97 4
68 98 5
68 99 2
68 100 4
69 70 3
69 71 4
69 72 3
69 73 2
69 74 4
69 75 4
69 76 4
69 77 1
69 78 1
69 79 4
69 80 3
69 81 5
69 82 4
69 83 2
69 84 4
69 85 4
69 86 5
69 87 3
69 88 2
69 89 3
69 90 4
69 91 5
69 92 4
69 93 5
69 94 2
69 95 3
69 96 3
69 97 4
69 98 5
69 99 3
69 100 5
70 71 3
70 72 2
70 73 2
70 74 2
70 75 2
70 76 5
70 77 2
70 78 4
70 79 1
70 80 3
70 81 3
70 82 2
70 83 4
70 84 2
70 85 3
70 86 1
70 87 2
70 88 5
70 89 1
70 90 5
70 91 3
70 92 1
70 93 3
70 94 2
70 95 4
70 96 5
70 97 3
70 98 2
70 99 5
70 100 3
71 72 1
71 73 3
71 74 4
71 75 4
71 76 4
71 77 2
71 78 4
71 79 4
71 80 3
71 81 5
71 82 4
71 83 1
71 84 2
71 85 5
71 86 4
71 87 4
71 88 1
71 89 3
71 90 5
71 91 3
71 92 5
71 93 2
71 94 2
71 95 5
71 96 1
71 97 4
71 98 5
71 99 2
71 100 4
72 73 3
72 74 4
72 75 3
72 76 4
72 77 3
72 78 2
72 79 3
72 80 2
72 81 4
72 82 1
72 83 3
72 84 4
72 85 4
72 86 1
72 87 4
72 88 5
72 89 3
72 90 5
72 91 1
72 92 5
72 93 2
72 94 1
72 95 3
72 96 4
72 97 2
72 98 4
72 99 3
72 100 2
73 74 5
73 75 2
73 76 3
73 77 3
73 78 4
73 79 3
73 80 2
73 81 4
73 82 4
73 83 4
73 84 5
73 85 4
73 86 4
73 87 3
73 88 4
73 89 4
73 90 4
73 91 1
73 92 1
73 93 1
73 94 5
73 95 2
73 96 2
73 97 3
73 98 3
73 99 5
73 100 3
74 75 4
74 76 4
74 77 4
74 78 3
74 79 3
74 80 5
74 81 1
74 82 3
74 83 4
74 84 4
74 85 4
74 86 5
74 87 1
74 88 4
74 89 1
74 90 1
74 91 1
74 92 1
74 93 1
74 94 3
74 95 3
74 96 1
74 97 1
74 98 1
74 99 3
74 100 3
75 76 2
75 77 5
75 78 5
75 79 5
75 80 4
75 81 1
75 82 5
75 83 1
75 84 1
75 85 1
75 86 4
75 87 4
75 88 5
75 89 1
75 90 4
75 91 2
75 92 5
75 93 2
75 94 1
75 95 3
75 96 3
75 97 2
75 98 4
75 99 2
75 100 3
76 77 2
76 78 1
76 79 4
76 80 2
76 81 4
76 82 3
76 83 2
76 84 3
76 85 3
76 86 4
76 87 5
76 88 1
76 89 3
76 90 4
76 91 5
76 92 1
76 93 3
76 94 5
76 95 2
76 96 5
76 97 5
76 98 2
76 99 1
76 100 4
77 78 5
77 79 5
77 80 1
77 81 4
77 82 2
77 83 2
77 84 3
77 85 4
77 86 5
77 87 1
77 88 1
77 89 5
77 90 3
77 91 1
77 92 2
77 93 1
77 94 4
77 95 2
77 96 5
77 97 2
77 98 4
77 99 1
77 100 3
78 79 1
78 80 1
78 81 2
78 82 2
78 83 5
78 84 3
78 85 1
78 86 1
78 87 1
78 88 1
78 89 2
78 90 1
78 91 2
78 92 5
78 93 5
78 94 5
78 95 3
78 96 4
78 97 2
78 98 4
78 99 3
78 100 5
79 80 3
79 81 3
79 82 3
79 83 4
79 84 2
79 85 4
79 86 2
79 87 5
79 88 2
79 89 5
79 90 1
79 91 5
79 92 1
79 93 1
79 94 4
79 95 5
79 96 4
79 97 4
79 98 1
79 99 2
79 100 4
80 81 4
80 82 4
80 83 2
80 84 3
80 85 3
80 86 1
80 87 4
80 88 4
80 89 3
80 90 3
80 91 5
80 92 4
80 93 3
80 94 2
80 95 4
80 96 4
80 97 4
80 98 1
80 99 4
80 100 5
81 82 1
81 83 1
81 84 5
81 85 3
81 86 1
81 87 1
81 88 1
81 89 1
81 90 5
81 91 5
81 92 4
81 93 5
81 94 2
81 95 1
81 96 1
81 97 4
81 98 4
81 99 5
81 100 4
82 83 2
82 84 2
82 85 1
82 86 2
82 87 5
82 88 3
82 89 3
82 90 5
82 91 4
82 92 1
82 93 5
82 94 4
82 95 1
82 96 4
82 97 4
82 98 1
82 99 1
82 100 2
83 84 5
83 85 1
83 86 4
83 87 2
83 88 2
83 89 1
83 90 1
83 91 2
83 92 2
83 93 2
83 94 4
83 95 2
83 96 3
83 97 5
83 98 1
83 99 5
83 100 3
84 85 3
84 86 2
84 87 5
84 88 3
84 89 3
84 90 2
84 91 3
84 92 2
84 93 2
84 94 5
84 95 1
84 96 2
84 97 2
84 98 1
84 99 3
84 100 2
85 86 2
85 87 4
85 88 1
85 89 2
85 90 4
85 91 2
85 92 1
85 93 2
85 94 5
85 95 5
85 96 3
85 97 1
85 98 2
85 99 3
85 100 1
86 87 4
86 88 4
86 89 2
86 90 5
86 91 3
86 92 5
86 93 5
86 94 1
86 95 2
86 96 2
86 97 1
86 98 3
86 99 4
86 100 3
87 88 3
87 89 2
87 90 4
87 91 2
87 92 5
87 93 1
87 94 4
87 95 1
87 96 2
87 97 2
87 98 5
87 99 3
87 100 5
88 89 2
88 90 1
88 91 1
88 92 5
88 93 1
88 94 2
88 95 3
88 96 4
88 97 1
88 98 2
88 99 1
88 100 3
89 90 3
89 91 3
89 92 2
89 93 5
89 94 5
89 95 3
89 96 4
89 97 5
89 98 5
89 99 5
89 100 1
90 91 4
90 92 5
90 93 4
90 94 3
90 95 4
90 96 2
90 97 5
90 98 5
90 99 1
90 100 4
91 92 3
91 93 1
91 94 5
91 95 2
91 96 5
91 97 3
91 98 3
91 99 4
91 100 4
92 93 2
92 94 5
92 95 3
92 96 1
92 97 1
92 98 4
92 99 2
92 100 3
93 94 4
93 95 1
93 96 4
93 97 4
93 98 5
93 99 1
93 100 3
94 95 4
94 96 3
94 97 4
94 98 3
94 99 1
94 100 3
95 96 1
95 97 5
95 98 4
95 99 1
95 100 1
96 97 2
96 98 3
96 99 1
96 100 3
97 98 2
97 99 5
97 100 5
98 99 5
98 100 2
99 100 1
